\ LP format - for model browsing. Use MPS format to capture full model detail.
Minimize
  3 x0 - 5 x1 + 4 x3
Subject To
 constr(0): - 5 x0 + 3 x2 - 2 x3 <= 17
 constr(1): - 4 x0 - x1 + 3 x2 = 19
Bounds
 -3 <= x0 <= 5
 -2 <= x1 <= 1
 -2 <= x2 <= 5
 -5 <= x3 <= 2
Generals
 x0 x1 x2 x3
End
